(declare-fun a () Real)
(declare-fun b () Real)
(declare-fun c () Real)
(assert (< a (- 0.5)))
(check-sat)
(assert (not (= (* b c) 0)))
(assert (= a (- 1)))
(check-sat)
(declare-fun a () Real)
(declare-fun b () Real)
(declare-fun c () Real)
(assert (< a (- 0.5)))
(check-sat)
(assert (not (= (* b c) 0)))
(assert (= a (- 1)))
(check-sat)
